
Gurobi 6.0.4 (win64) logging started 06/21/15 10:33:01

Read LP format model from file C:\MT\repository\VRPTWMS\instances\mip\fuel\N12-C_DV100-C_SV30_F6_14_No_1.lp
Reading time = 0.02 seconds
(null): 865 rows, 392 columns, 3639 nonzeros
Optimize a model with 865 rows, 392 columns and 3639 nonzeros
Model has 1728 quadratic constraints
Coefficient statistics:
  Matrix range    [1e+00, 1e+06]
  Objective range [4e+04, 1e+07]
  Bounds range    [1e+00, 1e+06]
  RHS range       [1e+00, 1e+06]
Presolve removed 118 rows and 61 columns
Presolve time: 0.16s
Presolved: 3055 rows, 1485 columns, 17520 nonzeros
Variable types: 1154 continuous, 331 integer (282 binary)
Found heuristic solution: objective 1.256550e+08

Root relaxation: objective 1.211427e+07, 165 iterations, 0.01 seconds

    Nodes    |    Current Node    |     Objective Bounds      |     Work
 Expl Unexpl |  Obj  Depth IntInf | Incumbent    BestBd   Gap | It/Node Time

     0     0 1.2114e+07    0   45 1.2566e+08 1.2114e+07  90.4%     -    0s
H    0     0                    7.419630e+07 1.2114e+07  83.7%     -    0s
     0     0 1.2434e+07    0   59 7.4196e+07 1.2434e+07  83.2%     -    0s
H    0     0                    6.401950e+07 1.2434e+07  80.6%     -    0s
     0     0 1.2552e+07    0   38 6.4020e+07 1.2552e+07  80.4%     -    0s
     0     0 1.2893e+07    0   53 6.4020e+07 1.2893e+07  79.9%     -    0s
     0     0 1.3690e+07    0   53 6.4020e+07 1.3690e+07  78.6%     -    0s
     0     0 1.4026e+07    0   58 6.4020e+07 1.4026e+07  78.1%     -    0s
     0     0 1.4026e+07    0   57 6.4020e+07 1.4026e+07  78.1%     -    0s
     0     0 1.4026e+07    0   58 6.4020e+07 1.4026e+07  78.1%     -    0s
     0     0 1.4026e+07    0   57 6.4020e+07 1.4026e+07  78.1%     -    0s
     0     2 1.4026e+07    0   56 6.4020e+07 1.4026e+07  78.1%     -    0s
H  141    74                    5.393900e+07 2.2285e+07  58.7%  20.5    0s
H  167    87                    5.384420e+07 2.2372e+07  58.5%  19.7    0s
*  191   101              30    5.369430e+07 2.2372e+07  58.3%  19.2    0s
H  203   102                    5.343970e+07 2.2372e+07  58.1%  18.7    0s
H  466   146                    4.314150e+07 2.2479e+07  47.9%  17.7    1s
H  771   229                    4.310460e+07 2.2712e+07  47.3%  18.4    1s
* 1508   405              19    4.305700e+07 2.4912e+07  42.1%  20.1    2s

Cutting planes:
  Cover: 3
  Implied bound: 1
  Clique: 3
  MIR: 3
  GUB cover: 4

Explored 2257 nodes (39724 simplex iterations) in 4.49 seconds
Thread count was 2 (of 4 available processors)

Optimal solution found (tolerance 1.00e-04)
Best objective 4.305700000000e+07, best bound 4.305700000000e+07, gap 0.0%
k_c1	100000.0
k_c10	1000000.0
k_c11	109999.99999999983
k_c12	80000.0
k_c2	40000.0
k_c3	40000.0
k_c4	99999.99999999988
k_c5	40000.0
k_c6	40000.0
k_c7	80000.00000000006
k_c8	159999.99999999983
k_c9	940000.0
k_dN	-0.0
o_1	-0.0
o_10	-0.0
o_11	-0.0
o_12	-0.0
o_2	-0.0
o_3	0.0
o_4	-0.0
o_5	-0.0
o_6	-0.0
o_7	0.0
o_8	-0.0
o_9	-0.0
p_1	0.0
p_10	-0.0
p_11	0.0
p_12	0.0
p_2	0.0
p_3	0.0
p_4	-0.0
p_5	0.0
p_6	0.0
p_7	0.0
p_8	0.0
p_9	-0.0
phi_c1	41452.00000000003
phi_c10	53651.0
phi_c11	32979.00000000006
phi_c12	30748.00000000003
phi_c2	33239.99999999993
phi_c3	4682.999999999993
phi_c4	16723.0
phi_c5	26466.00000000003
phi_c6	6723.0
phi_c7	20643.000000000062
phi_c8	38498.00000000006
phi_c9	30518.0
phi_d0	60000.0
phi_dN	-0.0
tauD_c1	300000.0
tauD_c10	50000.0
tauD_c11	250000.0
tauD_c12	734000.0
tauD_c2	650000.0
tauD_c3	850000.0
tauD_c4	651549.9999999999
tauD_c5	800000.0
tauD_c6	850000.0
tauD_c7	700000.0
tauD_c8	80350.0
tauD_c9	500000.0
tauD_d0	-0.0
tauD_dN	1000000.0
tauS_c1	859800.0
tauS_c10	39025.0
tauS_c11	843975.0
tauS_c12	828200.0
tauS_c2	820000.0
tauS_c3	32575.0
tauS_c4	41000.0
tauS_c5	821100.0
tauS_c6	894875.0
tauS_c7	882500.0
tauS_c8	839650.0
tauS_c9	850350.0
tauS_d0	-0.0
tauS_dN	1000000.0
x_c10_c9	1.0
x_c11_c7	1.0
x_c12_c5	1.0
x_c1_c12	1.0
x_c2_dN	1.0000000000000002
x_c3_dN	1.0
x_c4_c3	1.0000000000000002
x_c5_dN	1.0
x_c6_dN	0.9999999999999998
x_c7_c6	1.0
x_c8_c11	1.0
x_c9_c4	1.0
x_d0_c1	1.0
x_d0_c10	1.0
x_d0_c2	1.0
x_d0_c8	1.0
